%nprocshared=8
%mem=4GB
%chk=tmp.chk
#p hf/genECP scf(xqc,MaxCycle=120)

Initial guess

0 1
K   0.00000000   0.00000000    0.00000000
Br  0.00000000   0.00000000   12.00000000

K  0
 S 16 1.00
    9.594510E+02     1.640000E-04
    1.647600E+02     8.830000E-04
    3.553630E+01     3.488000E-03
    1.510640E+01    -2.772900E-02
    9.211550E+00     1.441250E-01
    4.557350E+00    -2.972050E-01
    2.692740E+00    -2.016670E-01
    1.613090E+00     3.275900E-02
    9.532860E-01     3.400370E-01
    5.624920E-01     4.383300E-01
    3.401670E-01     3.136120E-01
    2.125540E-01     1.099310E-01
    1.283350E-01     1.975500E-02
    5.045300E-02    -2.200000E-05
    2.569400E-02     4.900000E-04
    1.290600E-02     2.600000E-05
 S 1 1.00
    2.125540E-01     1.000000E+00
 S 1 1.00
    1.283350E-01     1.000000E+00
 S 1 1.00
    5.045300E-02     1.000000E+00
 S 1 1.00
    2.569400E-02     1.000000E+00
 S 1 1.00
    1.290600E-02     1.000000E+00
 S 1 1.00
    4.119400E+00     1.000000E+00
 S 1 1.00
    2.131800E+00     1.000000E+00
 S 1 1.00
    1.103300E+00     1.000000E+00
 S 1 1.00
    5.709000E-01     1.000000E+00
 P 13 1.00
    3.720460E+02     5.700000E-05
    1.443220E+02     2.700000E-04
    4.493570E+01     1.806000E-03
    1.608730E+01     5.292000E-03
    8.134740E+00     1.309600E-02
    4.462900E+00    -5.887400E-02
    1.511490E+00     2.055820E-01
    7.590030E-01     4.044980E-01
    3.671100E-01     3.776910E-01
    1.728610E-01     1.452520E-01
    5.186200E-02     1.002500E-02
    2.311700E-02    -2.689000E-03
    1.053400E-02     8.720000E-04
 P 1 1.00
    1.728610E-01     1.000000E+00
 P 1 1.00
    5.186200E-02     1.000000E+00
 P 1 1.00
    2.311700E-02     1.000000E+00
 P 1 1.00
    1.053400E-02     1.000000E+00
 P 1 1.00
    8.717900E+00     1.000000E+00
 P 1 1.00
    4.246900E+00     1.000000E+00
 P 1 1.00
    2.068900E+00     1.000000E+00
 P 1 1.00
    1.007900E+00     1.000000E+00
 D 8 1.00
    6.355530E+00     5.751000E-03
    2.362610E+00     1.375500E-02
    8.782750E-01     3.238200E-02
    2.961860E-01     5.668700E-02
    1.062750E-01     2.794500E-02
    6.609400E-02     1.654670E-01
    2.356200E-02     4.261530E-01
    1.025200E-02     5.234620E-01
 D 1 1.00
    1.062750E-01     1.000000E+00
 D 1 1.00
    6.609400E-02     1.000000E+00
 D 1 1.00
    2.356200E-02     1.000000E+00
 D 1 1.00
    1.025200E-02     1.000000E+00
 D 1 1.00
    8.979900E+00     1.000000E+00
 D 1 1.00
    3.896200E+00     1.000000E+00
 D 1 1.00
    1.690500E+00     1.000000E+00
 D 1 1.00
    7.335000E-01     1.000000E+00
 F 1 1.00
    3.896180E-01     1.000000E+00
 F 1 1.00
    1.377800E-01     1.000000E+00
 F 1 1.00
    6.914000E-02     1.000000E+00
 F 1 1.00
    3.071600E+00     1.000000E+00
 F 1 1.00
    1.840400E+00     1.000000E+00
 F 1 1.00
    9.609000E-01     1.000000E+00
 G 1 1.00
    1.289130E-01     1.000000E+00
 G 1 1.00
    8.043900E-02     1.000000E+00
 G 1 1.00
    2.020200E+00     1.000000E+00
 G 1 1.00
    8.908000E-01     1.000000E+00
 H 1 1.00
    1.441200E-01     1.000000E+00
 H 1 1.00
    1.636400E+00     1.000000E+00
****
Br  0
 S 14 1.00
    7.896750E+04     2.800000E-05
    1.180970E+04     2.140000E-04
    2.687140E+03     1.056000E-03
    7.600360E+02     3.688000E-03
    2.418110E+02     7.934000E-03
    3.849140E+01     1.528680E-01
    2.405860E+01    -2.786020E-01
    1.435870E+01    -2.188500E-01
    4.377370E+00     4.960050E-01
    2.351820E+00     5.523410E-01
    1.251050E+00     1.702270E-01
    5.294680E-01     8.025000E-03
    2.418960E-01    -1.500000E-05
    1.064860E-01     2.550000E-04
 S 14 1.00
    7.896750E+04    -1.100000E-05
    1.180970E+04    -8.600000E-05
    2.687140E+03    -4.350000E-04
    7.600360E+02    -1.457000E-03
    2.418110E+02    -3.381000E-03
    3.849140E+01    -5.765800E-02
    2.405860E+01     1.123250E-01
    1.435870E+01     7.567300E-02
    4.377370E+00    -2.249200E-01
    2.351820E+00    -4.067380E-01
    1.251050E+00    -1.443280E-01
    5.294680E-01     4.999840E-01
    2.418960E-01     6.082040E-01
    1.064860E-01     1.662590E-01
 S 1 1.00
    1.251050E+00     1.000000E+00
 S 1 1.00
    5.294680E-01     1.000000E+00
 S 1 1.00
    2.418960E-01     1.000000E+00
 S 1 1.00
    1.064860E-01     1.000000E+00
 S 1 1.00
    4.070000E-02     1.000000E+00
 P 11 1.00
    5.036320E+02     4.640000E-04
    9.300230E+01     5.456000E-03
    4.251000E+01    -1.307000E-03
    2.657780E+01    -8.872400E-02
    7.580970E+00     3.001460E-01
    3.858870E+00     4.722000E-01
    1.943090E+00     2.982910E-01
    9.242090E-01     5.377700E-02
    4.177330E-01     1.157000E-03
    1.808530E-01     1.164000E-03
    7.515400E-02     2.600000E-05
 P 11 1.00
    5.036320E+02    -1.290000E-04
    9.300230E+01    -1.747000E-03
    4.251000E+01     1.862000E-03
    2.657780E+01     2.345100E-02
    7.580970E+00    -9.899900E-02
    3.858870E+00    -1.577990E-01
    1.943090E+00    -1.232600E-01
    9.242090E-01     1.538350E-01
    4.177330E-01     4.489840E-01
    1.808530E-01     4.388590E-01
    7.515400E-02     1.471480E-01
 P 1 1.00
    4.177330E-01     1.000000E+00
 P 1 1.00
    1.808530E-01     1.000000E+00
 P 1 1.00
    7.515400E-02     1.000000E+00
 P 1 1.00
    2.950000E-02     1.000000E+00
 D 11 1.00
    1.097720E+03     1.110000E-04
    3.329290E+02     1.153000E-03
    1.308000E+02     7.690000E-03
    6.012710E+01     3.571500E-02
    2.974300E+01     9.303200E-02
    1.503810E+01     1.885660E-01
    7.731320E+00     2.835430E-01
    3.961930E+00     3.179110E-01
    2.004490E+00     2.481490E-01
    9.732760E-01     1.081840E-01
    4.146780E-01     1.664100E-02
 D 1 1.00
    9.732760E-01     1.000000E+00
 D 1 1.00
    4.146780E-01     1.000000E+00
 D 1 1.00
    1.747000E-01     1.000000E+00
 D 1 1.00
    7.470000E-02     1.000000E+00
 F 1 1.00
    8.255000E-01     1.000000E+00
 F 1 1.00
    3.409000E-01     1.000000E+00
 F 1 1.00
    1.613000E-01     1.000000E+00
 G 1 1.00
    6.582000E-01     1.000000E+00
 G 1 1.00
    3.067000E-01     1.000000E+00
****

K 0
ECP10MDF 4 10
G-Komponente
1
2 1. 0.
S-G
1
2 6.882798725 91.144930956
P-G
2
2 4.726860935 9.674728404
2 4.845267086 20.569141945
D-G
4
2 8.707542696 -2.542646076
2 8.310839526 -3.464046663
2 8.707542696 -2.542646076
2 8.310839526 -3.464046663
F-G
2
2 13.939669153 -16.555281537
2 16.629551418 -36.621153100
Br 0
ECP10MDF 4 10
G-Komponente
1
2 1.000000 0.000000
S-G
3
2 70.024257 49.962834
2 31.178412 370.014205
2 7.156593 10.241439
P-G
4
2 46.773471 99.112244
2 46.184120 198.253046
2 21.713858 28.261740
2 20.941792 56.623366
D-G
6
2 50.698839 -18.605853
2 50.644764 -27.923280
2 15.447509 -0.379693
2 15.500259 -0.780583
2 2.800391 0.035968
2 1.077480 0.094397
F-G
2
2 14.465606 -1.091269
2 21.234065 -2.887691

--Link1--
%nprocshared=8
%mem=4GB
%chk=tmp.chk
# lc-wpbe/genECP output=wfx scf(xqc,MaxCycle=150) geom=check guess=(read) 

postg calculation

0 1

K  0
 S 16 1.00
    9.594510E+02     1.640000E-04
    1.647600E+02     8.830000E-04
    3.553630E+01     3.488000E-03
    1.510640E+01    -2.772900E-02
    9.211550E+00     1.441250E-01
    4.557350E+00    -2.972050E-01
    2.692740E+00    -2.016670E-01
    1.613090E+00     3.275900E-02
    9.532860E-01     3.400370E-01
    5.624920E-01     4.383300E-01
    3.401670E-01     3.136120E-01
    2.125540E-01     1.099310E-01
    1.283350E-01     1.975500E-02
    5.045300E-02    -2.200000E-05
    2.569400E-02     4.900000E-04
    1.290600E-02     2.600000E-05
 S 1 1.00
    2.125540E-01     1.000000E+00
 S 1 1.00
    1.283350E-01     1.000000E+00
 S 1 1.00
    5.045300E-02     1.000000E+00
 S 1 1.00
    2.569400E-02     1.000000E+00
 S 1 1.00
    1.290600E-02     1.000000E+00
 S 1 1.00
    4.119400E+00     1.000000E+00
 S 1 1.00
    2.131800E+00     1.000000E+00
 S 1 1.00
    1.103300E+00     1.000000E+00
 S 1 1.00
    5.709000E-01     1.000000E+00
 P 13 1.00
    3.720460E+02     5.700000E-05
    1.443220E+02     2.700000E-04
    4.493570E+01     1.806000E-03
    1.608730E+01     5.292000E-03
    8.134740E+00     1.309600E-02
    4.462900E+00    -5.887400E-02
    1.511490E+00     2.055820E-01
    7.590030E-01     4.044980E-01
    3.671100E-01     3.776910E-01
    1.728610E-01     1.452520E-01
    5.186200E-02     1.002500E-02
    2.311700E-02    -2.689000E-03
    1.053400E-02     8.720000E-04
 P 1 1.00
    1.728610E-01     1.000000E+00
 P 1 1.00
    5.186200E-02     1.000000E+00
 P 1 1.00
    2.311700E-02     1.000000E+00
 P 1 1.00
    1.053400E-02     1.000000E+00
 P 1 1.00
    8.717900E+00     1.000000E+00
 P 1 1.00
    4.246900E+00     1.000000E+00
 P 1 1.00
    2.068900E+00     1.000000E+00
 P 1 1.00
    1.007900E+00     1.000000E+00
 D 8 1.00
    6.355530E+00     5.751000E-03
    2.362610E+00     1.375500E-02
    8.782750E-01     3.238200E-02
    2.961860E-01     5.668700E-02
    1.062750E-01     2.794500E-02
    6.609400E-02     1.654670E-01
    2.356200E-02     4.261530E-01
    1.025200E-02     5.234620E-01
 D 1 1.00
    1.062750E-01     1.000000E+00
 D 1 1.00
    6.609400E-02     1.000000E+00
 D 1 1.00
    2.356200E-02     1.000000E+00
 D 1 1.00
    1.025200E-02     1.000000E+00
 D 1 1.00
    8.979900E+00     1.000000E+00
 D 1 1.00
    3.896200E+00     1.000000E+00
 D 1 1.00
    1.690500E+00     1.000000E+00
 D 1 1.00
    7.335000E-01     1.000000E+00
 F 1 1.00
    3.896180E-01     1.000000E+00
 F 1 1.00
    1.377800E-01     1.000000E+00
 F 1 1.00
    6.914000E-02     1.000000E+00
 F 1 1.00
    3.071600E+00     1.000000E+00
 F 1 1.00
    1.840400E+00     1.000000E+00
 F 1 1.00
    9.609000E-01     1.000000E+00
 G 1 1.00
    1.289130E-01     1.000000E+00
 G 1 1.00
    8.043900E-02     1.000000E+00
 G 1 1.00
    2.020200E+00     1.000000E+00
 G 1 1.00
    8.908000E-01     1.000000E+00
 H 1 1.00
    1.441200E-01     1.000000E+00
 H 1 1.00
    1.636400E+00     1.000000E+00
****
Br  0
 S 14 1.00
    7.896750E+04     2.800000E-05
    1.180970E+04     2.140000E-04
    2.687140E+03     1.056000E-03
    7.600360E+02     3.688000E-03
    2.418110E+02     7.934000E-03
    3.849140E+01     1.528680E-01
    2.405860E+01    -2.786020E-01
    1.435870E+01    -2.188500E-01
    4.377370E+00     4.960050E-01
    2.351820E+00     5.523410E-01
    1.251050E+00     1.702270E-01
    5.294680E-01     8.025000E-03
    2.418960E-01    -1.500000E-05
    1.064860E-01     2.550000E-04
 S 14 1.00
    7.896750E+04    -1.100000E-05
    1.180970E+04    -8.600000E-05
    2.687140E+03    -4.350000E-04
    7.600360E+02    -1.457000E-03
    2.418110E+02    -3.381000E-03
    3.849140E+01    -5.765800E-02
    2.405860E+01     1.123250E-01
    1.435870E+01     7.567300E-02
    4.377370E+00    -2.249200E-01
    2.351820E+00    -4.067380E-01
    1.251050E+00    -1.443280E-01
    5.294680E-01     4.999840E-01
    2.418960E-01     6.082040E-01
    1.064860E-01     1.662590E-01
 S 1 1.00
    1.251050E+00     1.000000E+00
 S 1 1.00
    5.294680E-01     1.000000E+00
 S 1 1.00
    2.418960E-01     1.000000E+00
 S 1 1.00
    1.064860E-01     1.000000E+00
 S 1 1.00
    4.070000E-02     1.000000E+00
 P 11 1.00
    5.036320E+02     4.640000E-04
    9.300230E+01     5.456000E-03
    4.251000E+01    -1.307000E-03
    2.657780E+01    -8.872400E-02
    7.580970E+00     3.001460E-01
    3.858870E+00     4.722000E-01
    1.943090E+00     2.982910E-01
    9.242090E-01     5.377700E-02
    4.177330E-01     1.157000E-03
    1.808530E-01     1.164000E-03
    7.515400E-02     2.600000E-05
 P 11 1.00
    5.036320E+02    -1.290000E-04
    9.300230E+01    -1.747000E-03
    4.251000E+01     1.862000E-03
    2.657780E+01     2.345100E-02
    7.580970E+00    -9.899900E-02
    3.858870E+00    -1.577990E-01
    1.943090E+00    -1.232600E-01
    9.242090E-01     1.538350E-01
    4.177330E-01     4.489840E-01
    1.808530E-01     4.388590E-01
    7.515400E-02     1.471480E-01
 P 1 1.00
    4.177330E-01     1.000000E+00
 P 1 1.00
    1.808530E-01     1.000000E+00
 P 1 1.00
    7.515400E-02     1.000000E+00
 P 1 1.00
    2.950000E-02     1.000000E+00
 D 11 1.00
    1.097720E+03     1.110000E-04
    3.329290E+02     1.153000E-03
    1.308000E+02     7.690000E-03
    6.012710E+01     3.571500E-02
    2.974300E+01     9.303200E-02
    1.503810E+01     1.885660E-01
    7.731320E+00     2.835430E-01
    3.961930E+00     3.179110E-01
    2.004490E+00     2.481490E-01
    9.732760E-01     1.081840E-01
    4.146780E-01     1.664100E-02
 D 1 1.00
    9.732760E-01     1.000000E+00
 D 1 1.00
    4.146780E-01     1.000000E+00
 D 1 1.00
    1.747000E-01     1.000000E+00
 D 1 1.00
    7.470000E-02     1.000000E+00
 F 1 1.00
    8.255000E-01     1.000000E+00
 F 1 1.00
    3.409000E-01     1.000000E+00
 F 1 1.00
    1.613000E-01     1.000000E+00
 G 1 1.00
    6.582000E-01     1.000000E+00
 G 1 1.00
    3.067000E-01     1.000000E+00
****

K 0
ECP10MDF 4 10
G-Komponente
1
2 1. 0.
S-G
1
2 6.882798725 91.144930956
P-G
2
2 4.726860935 9.674728404
2 4.845267086 20.569141945
D-G
4
2 8.707542696 -2.542646076
2 8.310839526 -3.464046663
2 8.707542696 -2.542646076
2 8.310839526 -3.464046663
F-G
2
2 13.939669153 -16.555281537
2 16.629551418 -36.621153100
Br 0
ECP10MDF 4 10
G-Komponente
1
2 1.000000 0.000000
S-G
3
2 70.024257 49.962834
2 31.178412 370.014205
2 7.156593 10.241439
P-G
4
2 46.773471 99.112244
2 46.184120 198.253046
2 21.713858 28.261740
2 20.941792 56.623366
D-G
6
2 50.698839 -18.605853
2 50.644764 -27.923280
2 15.447509 -0.379693
2 15.500259 -0.780583
2 2.800391 0.035968
2 1.077480 0.094397
F-G
2
2 14.465606 -1.091269
2 21.234065 -2.887691

input.wfx

